(set-info :status sat)
(declare-const symbol_225 (_ BitVec 32))
(declare-const symbol_216 (_ BitVec 32))
(declare-const symbol_140 (_ BitVec 32))
(declare-const symbol_498 (_ BitVec 32))
(declare-const symbol_422 (_ BitVec 32))
(declare-const symbol_240 (_ BitVec 32))
(declare-const symbol_25 (_ BitVec 32))
(declare-const symbol_484 (_ BitVec 32))
(declare-const symbol_513 (_ BitVec 32))
(declare-const symbol_293 (_ BitVec 32))
(declare-const symbol_73 (_ BitVec 32))
(declare-const symbol_110 (_ BitVec 32))
(declare-const symbol_198 (_ BitVec 32))
(declare-const symbol_58 (_ BitVec 32))
(declare-const symbol_152 (_ BitVec 32))
(declare-const symbol_115 (_ BitVec 32))
(declare-const symbol_247 (_ BitVec 32))
(declare-const symbol_272 (_ BitVec 32))
(declare-const symbol_250 (_ BitVec 32))
(declare-const symbol_413 (_ BitVec 32))
(declare-const symbol_446 (_ BitVec 32))
(declare-const symbol_254 (_ BitVec 32))
(declare-const symbol_478 (_ BitVec 32))
(declare-const symbol_84 (_ BitVec 32))
(declare-const symbol_554 (_ BitVec 32))
(declare-const symbol_29 (_ BitVec 32))
(declare-const symbol_23 (_ BitVec 32))
(declare-const symbol_15 (_ BitVec 32))
(declare-const symbol_44 (_ BitVec 32))
(declare-const symbol_251 (_ BitVec 32))
(declare-const symbol_398 (_ BitVec 32))
(declare-const symbol_103 (_ BitVec 32))
(declare-const symbol_550 (_ BitVec 32))
(declare-const symbol_396 (_ BitVec 32))
(declare-const symbol_231 (_ BitVec 32))
(declare-const symbol_531 (_ BitVec 32))
(declare-const symbol_407 (_ BitVec 32))
(declare-const symbol_11 (_ BitVec 32))
(declare-const symbol_465 (_ BitVec 32))
(declare-const symbol_267 (_ BitVec 32))
(declare-const symbol_265 (_ BitVec 32))
(declare-const symbol_311 (_ BitVec 32))
(declare-const symbol_373 (_ BitVec 32))
(declare-const symbol_1 (_ BitVec 32))
(declare-const symbol_185 (_ BitVec 32))
(declare-const symbol_418 (_ BitVec 32))
(declare-const symbol_281 (_ BitVec 32))
(declare-const symbol_62 (_ BitVec 32))
(declare-const symbol_380 (_ BitVec 32))
(declare-const symbol_507 (_ BitVec 32))
(declare-const symbol_274 (_ BitVec 32))
(declare-const symbol_269 (_ BitVec 32))
(declare-const symbol_200 (_ BitVec 32))
(declare-const symbol_66 (_ BitVec 32))
(declare-const symbol_463 (_ BitVec 32))
(declare-const symbol_235 (_ BitVec 32))
(declare-const symbol_429 (_ BitVec 32))
(declare-const symbol_343 (_ BitVec 32))
(declare-const symbol_455 (_ BitVec 32))
(declare-const symbol_101 (_ BitVec 32))
(declare-const symbol_350 (_ BitVec 32))
(declare-const symbol_277 (_ BitVec 32))
(declare-const symbol_154 (_ BitVec 32))
(declare-const symbol_86 (_ BitVec 32))
(declare-const symbol_415 (_ BitVec 32))
(declare-const symbol_194 (_ BitVec 32))
(declare-const symbol_444 (_ BitVec 32))
(declare-const symbol_459 (_ BitVec 32))
(declare-const symbol_400 (_ BitVec 32))
(declare-const symbol_490 (_ BitVec 32))
(declare-const symbol_426 (_ BitVec 32))
(declare-const symbol_210 (_ BitVec 32))
(declare-const symbol_369 (_ BitVec 32))
(declare-const symbol_238 (_ BitVec 32))
(declare-const symbol_187 (_ BitVec 32))
(declare-const symbol_90 (_ BitVec 32))
(declare-const symbol_304 (_ BitVec 32))
(declare-const symbol_227 (_ BitVec 32))
(declare-const symbol_175 (_ BitVec 32))
(declare-const symbol_112 (_ BitVec 32))
(declare-const symbol_578 (_ BitVec 32))
(declare-const symbol_570 (_ BitVec 32))
(declare-const symbol_535 (_ BitVec 32))
(declare-const symbol_461 (_ BitVec 32))
(declare-const symbol_431 (_ BitVec 32))
(declare-const symbol_356 (_ BitVec 32))
(declare-const symbol_295 (_ BitVec 32))
(declare-const symbol_394 (_ BitVec 32))
(declare-const symbol_302 (_ BitVec 32))
(declare-const symbol_378 (_ BitVec 32))
(declare-const symbol_482 (_ BitVec 32))
(declare-const symbol_480 (_ BitVec 32))
(declare-const symbol_538 (_ BitVec 32))
(declare-const symbol_486 (_ BitVec 32))
(declare-const symbol_204 (_ BitVec 32))
(declare-const symbol_220 (_ BitVec 32))
(declare-const symbol_424 (_ BitVec 32))
(declare-const symbol_135 (_ BitVec 32))
(declare-const symbol_505 (_ BitVec 32))
(declare-const symbol_387 (_ BitVec 32))
(declare-const symbol_451 (_ BitVec 32))
(declare-const symbol_561 (_ BitVec 32))
(declare-const symbol_544 (_ BitVec 32))
(declare-const symbol_315 (_ BitVec 32))
(declare-const symbol_306 (_ BitVec 32))
(declare-const symbol_161 (_ BitVec 32))
(declare-const symbol_565 (_ BitVec 32))
(declare-const symbol_525 (_ BitVec 32))
(declare-const symbol_473 (_ BitVec 32))
(declare-const symbol_371 (_ BitVec 32))
(declare-const symbol_183 (_ BitVec 32))
(declare-const symbol_108 (_ BitVec 32))
(declare-const symbol_3 (_ BitVec 32))
(declare-const symbol_123 (_ BitVec 32))
(declare-const symbol_145 (_ BitVec 32))
(declare-const symbol_126 (_ BitVec 32))
(declare-const symbol_196 (_ BitVec 32))
(declare-const symbol_263 (_ BitVec 32))
(declare-const symbol_94 (_ BitVec 32))
(declare-const symbol_546 (_ BitVec 32))
(declare-const symbol_191 (_ BitVec 32))
(declare-const symbol_341 (_ BitVec 32))
(declare-const symbol_173 (_ BitVec 32))
(declare-const symbol_97 (_ BitVec 32))
(declare-const symbol_258 (_ BitVec 32))
(declare-const symbol_576 (_ BitVec 32))
(declare-const symbol_333 (_ BitVec 32))
(declare-const symbol_170 (_ BitVec 32))
(declare-const symbol_518 (_ BitVec 32))
(declare-const symbol_469 (_ BitVec 32))
(declare-const symbol_88 (_ BitVec 32))
(declare-const symbol_324 (_ BitVec 32))
(declare-const symbol_142 (_ BitVec 32))
(declare-const symbol_286 (_ BitVec 32))
(declare-const symbol_206 (_ BitVec 32))
(declare-const symbol_13 (_ BitVec 32))
(declare-const symbol_548 (_ BitVec 32))
(declare-const symbol_53 (_ BitVec 32))
(declare-const symbol_276 (_ BitVec 32))
(declare-const symbol_391 (_ BitVec 32))
(declare-const symbol_442 (_ BitVec 32))
(declare-const symbol_148 (_ BitVec 32))
(declare-const symbol_138 (_ BitVec 32))
(declare-const symbol_69 (_ BitVec 32))
(declare-const symbol_8 (_ BitVec 32))
(declare-const symbol_245 (_ BitVec 32))
(declare-const symbol_81 (_ BitVec 32))
(declare-const symbol_48 (_ BitVec 32))
(declare-const symbol_71 (_ BitVec 32))
(declare-const symbol_420 (_ BitVec 32))
(declare-const symbol_475 (_ BitVec 32))
(declare-const symbol_35 (_ BitVec 32))
(declare-const symbol_298 (_ BitVec 32))
(declare-const symbol_520 (_ BitVec 32))
(declare-const symbol_189 (_ BitVec 32))
(declare-const symbol_42 (_ BitVec 32))
(declare-const symbol_574 (_ BitVec 32))
(declare-const symbol_503 (_ BitVec 32))
(declare-const symbol_471 (_ BitVec 32))
(declare-const symbol_496 (_ BitVec 32))
(declare-const symbol_106 (_ BitVec 32))
(declare-const symbol_130 (_ BitVec 32))
(declare-const symbol_243 (_ BitVec 32))
(declare-const symbol_488 (_ BitVec 32))
(declare-const symbol_433 (_ BitVec 32))
(declare-const symbol_128 (_ BitVec 32))
(declare-const symbol_77 (_ BitVec 32))
(declare-const symbol_60 (_ BitVec 32))
(declare-const symbol_327 (_ BitVec 32))
(declare-const symbol_352 (_ BitVec 32))
(declare-const symbol_567 (_ BitVec 32))
(declare-const symbol_335 (_ BitVec 32))
(declare-const symbol_348 (_ BitVec 32))
(declare-const symbol_166 (_ BitVec 32))
(declare-const symbol_529 (_ BitVec 32))
(declare-const symbol_229 (_ BitVec 32))
(declare-const symbol_405 (_ BitVec 32))
(declare-const symbol_329 (_ BitVec 32))
(declare-const symbol_181 (_ BitVec 32))
(declare-const symbol_516 (_ BitVec 32))
(declare-const symbol_540 (_ BitVec 32))
(declare-const symbol_375 (_ BitVec 32))
(declare-const symbol_288 (_ BitVec 32))
(declare-const symbol_117 (_ BitVec 32))
(declare-const symbol_46 (_ BitVec 32))
(declare-const symbol_440 (_ BitVec 32))
(declare-const symbol_385 (_ BitVec 32))
(declare-const symbol_467 (_ BitVec 32))
(declare-const symbol_556 (_ BitVec 32))
(declare-const symbol_79 (_ BitVec 32))
(declare-const symbol_403 (_ BitVec 32))
(declare-const symbol_322 (_ BitVec 32))
(declare-const symbol_233 (_ BitVec 32))
(declare-const symbol_50 (_ BitVec 32))
(declare-const symbol_542 (_ BitVec 32))
(declare-const symbol_449 (_ BitVec 32))
(declare-const symbol_358 (_ BitVec 32))
(declare-const symbol_40 (_ BitVec 32))
(declare-const symbol_558 (_ BitVec 32))
(declare-const symbol_367 (_ BitVec 32))
(declare-const symbol_300 (_ BitVec 32))
(declare-const symbol_318 (_ BitVec 32))
(declare-const symbol_21 (_ BitVec 32))
(declare-const symbol_494 (_ BitVec 32))
(declare-const symbol_218 (_ BitVec 32))
(declare-const symbol_31 (_ BitVec 32))
(declare-const symbol_320 (_ BitVec 32))
(declare-const symbol_212 (_ BitVec 32))
(declare-const symbol_208 (_ BitVec 32))
(declare-const symbol_362 (_ BitVec 32))
(declare-const symbol_159 (_ BitVec 32))
(declare-const symbol_290 (_ BitVec 32))
(declare-const symbol_223 (_ BitVec 32))
(declare-const symbol_119 (_ BitVec 32))
(declare-const symbol_360 (_ BitVec 32))
(declare-const symbol_337 (_ BitVec 32))
(declare-const symbol_331 (_ BitVec 32))
(declare-const symbol_150 (_ BitVec 32))
(declare-const symbol_346 (_ BitVec 32))
(declare-const symbol_260 (_ BitVec 32))
(declare-const symbol_144 (_ BitVec 32))
(declare-const symbol_27 (_ BitVec 32))
(declare-const symbol_283 (_ BitVec 32))
(declare-const symbol_383 (_ BitVec 32))
(declare-const symbol_527 (_ BitVec 32))
(declare-const symbol_522 (_ BitVec 32))
(declare-const symbol_33 (_ BitVec 32))
(declare-const symbol_457 (_ BitVec 32))
(declare-const symbol_354 (_ BitVec 32))
(declare-const symbol_164 (_ BitVec 32))
(declare-const symbol_409 (_ BitVec 32))
(declare-const symbol_157 (_ BitVec 32))
(declare-const symbol_435 (_ BitVec 32))
(declare-const symbol_168 (_ BitVec 32))
(declare-const symbol_75 (_ BitVec 32))
(declare-const symbol_511 (_ BitVec 32))
(declare-const symbol_411 (_ BitVec 32))
(declare-const symbol_0 (_ BitVec 32))
(declare-const symbol_92 (_ BitVec 32))
(declare-const symbol_179 (_ BitVec 32))
(declare-const symbol_64 (_ BitVec 32))
(declare-const symbol_509 (_ BitVec 32))
(declare-const symbol_133 (_ BitVec 32))
(declare-const symbol_38 (_ BitVec 32))
(declare-const symbol_6 (_ BitVec 32))
(declare-const symbol_572 (_ BitVec 32))
(declare-const symbol_453 (_ BitVec 32))
(declare-const symbol_202 (_ BitVec 32))
(declare-const symbol_177 (_ BitVec 32))
(declare-const symbol_18 (_ BitVec 32))
(declare-const symbol_308 (_ BitVec 32))
(declare-const symbol_533 (_ BitVec 32))
(declare-const symbol_313 (_ BitVec 32))
(declare-const symbol_364 (_ BitVec 32))
(declare-const symbol_339 (_ BitVec 32))
(declare-const symbol_99 (_ BitVec 32))
(declare-const symbol_256 (_ BitVec 32))
(declare-const symbol_389 (_ BitVec 32))
(declare-const symbol_121 (_ BitVec 32))
(declare-const symbol_500 (_ BitVec 32))
(declare-const symbol_552 (_ BitVec 32))
(declare-const symbol_279 (_ BitVec 32))
(declare-const symbol_56 (_ BitVec 32))
(declare-const symbol_492 (_ BitVec 32))
(declare-const symbol_437 (_ BitVec 32))
(declare-const symbol_563 (_ BitVec 32))
(declare-const symbol_214 (_ BitVec 32))
(assert (not (= symbol_578 (_ bv3 32))))
(assert (not (not (= symbol_578 (_ bv5 32)))))
(assert (not (not (= symbol_576 (_ bv5 32)))))
(assert (not (not (= symbol_574 (_ bv5 32)))))
(assert (not (not (= symbol_572 (_ bv5 32)))))
(assert (not (not (= symbol_570 (_ bv5 32)))))
(assert (not (not (= symbol_567 (_ bv5 32)))))
(assert (not (not (= symbol_565 (_ bv5 32)))))
(assert (not (not (= symbol_563 (_ bv5 32)))))
(assert (not (not (= symbol_561 (_ bv5 32)))))
(assert (not (not (= symbol_558 (_ bv5 32)))))
(assert (not (not (= symbol_556 (_ bv5 32)))))
(assert (not (not (= symbol_554 (_ bv5 32)))))
(assert (not (not (= symbol_552 (_ bv5 32)))))
(assert (not (not (= symbol_550 (_ bv5 32)))))
(assert (not (not (= symbol_548 (_ bv5 32)))))
(assert (not (not (= symbol_546 (_ bv5 32)))))
(assert (not (not (= symbol_544 (_ bv5 32)))))
(assert (not (not (= symbol_542 (_ bv5 32)))))
(assert (not (not (= symbol_540 (_ bv5 32)))))
(assert (not (not (= symbol_538 (_ bv5 32)))))
(assert (not (not (= symbol_535 (_ bv5 32)))))
(assert (not (not (= symbol_533 (_ bv5 32)))))
(assert (not (not (= symbol_531 (_ bv5 32)))))
(assert (not (not (= symbol_529 (_ bv5 32)))))
(assert (not (not (= symbol_527 (_ bv5 32)))))
(assert (not (not (= symbol_525 (_ bv5 32)))))
(assert (not (not (= symbol_522 (_ bv5 32)))))
(assert (not (not (= symbol_520 (_ bv5 32)))))
(assert (not (not (= symbol_518 (_ bv5 32)))))
(assert (not (not (= symbol_516 (_ bv5 32)))))
(assert (not (not (= symbol_513 (_ bv5 32)))))
(assert (not (not (= symbol_511 (_ bv5 32)))))
(assert (not (not (= symbol_509 (_ bv5 32)))))
(assert (not (not (= symbol_507 (_ bv5 32)))))
(assert (not (not (= symbol_505 (_ bv5 32)))))
(assert (not (not (= symbol_503 (_ bv5 32)))))
(assert (not (not (= symbol_500 (_ bv5 32)))))
(assert (not (not (= symbol_498 (_ bv5 32)))))
(assert (not (not (= symbol_496 (_ bv5 32)))))
(assert (not (not (= symbol_494 (_ bv5 32)))))
(assert (not (not (= symbol_492 (_ bv5 32)))))
(assert (not (not (= symbol_490 (_ bv5 32)))))
(assert (not (not (= symbol_488 (_ bv5 32)))))
(assert (not (not (= symbol_486 (_ bv5 32)))))
(assert (not (not (= symbol_484 (_ bv5 32)))))
(assert (not (not (= symbol_482 (_ bv5 32)))))
(assert (not (not (= symbol_480 (_ bv5 32)))))
(assert (not (not (= symbol_478 (_ bv5 32)))))
(assert (not (not (= symbol_475 (_ bv5 32)))))
(assert (not (not (= symbol_473 (_ bv5 32)))))
(assert (not (not (= symbol_471 (_ bv5 32)))))
(assert (not (not (= symbol_469 (_ bv5 32)))))
(assert (not (not (= symbol_467 (_ bv5 32)))))
(assert (not (not (= symbol_465 (_ bv5 32)))))
(assert (not (not (= symbol_463 (_ bv5 32)))))
(assert (not (not (= symbol_461 (_ bv5 32)))))
(assert (not (not (= symbol_459 (_ bv5 32)))))
(assert (not (not (= symbol_457 (_ bv5 32)))))
(assert (not (not (= symbol_455 (_ bv5 32)))))
(assert (not (not (= symbol_453 (_ bv5 32)))))
(assert (not (not (= symbol_451 (_ bv5 32)))))
(assert (not (not (= symbol_449 (_ bv5 32)))))
(assert (not (not (= symbol_446 (_ bv5 32)))))
(assert (not (not (= symbol_444 (_ bv5 32)))))
(assert (not (not (= symbol_442 (_ bv5 32)))))
(assert (not (not (= symbol_440 (_ bv5 32)))))
(assert (not (not (= symbol_437 (_ bv5 32)))))
(assert (not (not (= symbol_435 (_ bv5 32)))))
(assert (not (not (= symbol_433 (_ bv5 32)))))
(assert (not (not (= symbol_431 (_ bv5 32)))))
(assert (not (not (= symbol_429 (_ bv5 32)))))
(assert (not (not (= symbol_426 (_ bv5 32)))))
(assert (not (not (= symbol_424 (_ bv5 32)))))
(assert (not (not (= symbol_422 (_ bv5 32)))))
(assert (not (not (= symbol_420 (_ bv5 32)))))
(assert (not (not (= symbol_418 (_ bv5 32)))))
(assert (not (not (= symbol_415 (_ bv5 32)))))
(assert (not (not (= symbol_413 (_ bv5 32)))))
(assert (not (not (= symbol_411 (_ bv5 32)))))
(assert (not (not (= symbol_409 (_ bv5 32)))))
(assert (not (not (= symbol_407 (_ bv5 32)))))
(assert (not (not (= symbol_405 (_ bv5 32)))))
(assert (not (not (= symbol_403 (_ bv5 32)))))
(assert (not (not (= symbol_400 (_ bv5 32)))))
(assert (not (not (= symbol_398 (_ bv5 32)))))
(assert (not (not (= symbol_396 (_ bv5 32)))))
(assert (not (not (= symbol_394 (_ bv5 32)))))
(assert (not (not (= symbol_391 (_ bv5 32)))))
(assert (not (not (= symbol_389 (_ bv5 32)))))
(assert (not (not (= symbol_387 (_ bv5 32)))))
(assert (not (not (= symbol_385 (_ bv5 32)))))
(assert (not (not (= symbol_383 (_ bv5 32)))))
(assert (not (not (= symbol_380 (_ bv5 32)))))
(assert (not (not (= symbol_378 (_ bv5 32)))))
(assert (not (not (= symbol_375 (_ bv5 32)))))
(assert (not (not (= symbol_373 (_ bv5 32)))))
(assert (not (not (= symbol_371 (_ bv5 32)))))
(assert (not (not (= symbol_369 (_ bv5 32)))))
(assert (not (not (= symbol_367 (_ bv5 32)))))
(assert (not (not (= symbol_364 (_ bv5 32)))))
(assert (not (not (= symbol_362 (_ bv5 32)))))
(assert (not (not (= symbol_360 (_ bv5 32)))))
(assert (not (not (= symbol_358 (_ bv5 32)))))
(assert (not (not (= symbol_356 (_ bv5 32)))))
(assert (not (not (= symbol_354 (_ bv5 32)))))
(assert (not (not (= symbol_352 (_ bv5 32)))))
(assert (not (not (= symbol_350 (_ bv5 32)))))
(assert (not (not (= symbol_348 (_ bv5 32)))))
(assert (not (not (= symbol_346 (_ bv5 32)))))
(assert (not (not (= symbol_343 (_ bv5 32)))))
(assert (not (not (= symbol_341 (_ bv5 32)))))
(assert (not (not (= symbol_339 (_ bv5 32)))))
(assert (not (not (= symbol_337 (_ bv5 32)))))
(assert (not (not (= symbol_335 (_ bv5 32)))))
(assert (not (not (= symbol_333 (_ bv5 32)))))
(assert (not (not (= symbol_331 (_ bv5 32)))))
(assert (not (not (= symbol_329 (_ bv5 32)))))
(assert (not (not (= symbol_327 (_ bv5 32)))))
(assert (not (not (= symbol_324 (_ bv5 32)))))
(assert (not (not (= symbol_322 (_ bv5 32)))))
(assert (not (not (= symbol_320 (_ bv5 32)))))
(assert (not (not (= symbol_318 (_ bv5 32)))))
(assert (not (not (= symbol_315 (_ bv5 32)))))
(assert (not (not (= symbol_313 (_ bv5 32)))))
(assert (not (not (= symbol_311 (_ bv5 32)))))
(assert (not (not (= symbol_308 (_ bv5 32)))))
(assert (not (not (= symbol_306 (_ bv5 32)))))
(assert (not (not (= symbol_304 (_ bv5 32)))))
(assert (not (not (= symbol_302 (_ bv5 32)))))
(assert (not (not (= symbol_300 (_ bv5 32)))))
(assert (not (not (= symbol_298 (_ bv5 32)))))
(assert (not (not (= symbol_295 (_ bv5 32)))))
(assert (not (not (= symbol_293 (_ bv5 32)))))
(assert (not (not (= symbol_290 (_ bv5 32)))))
(assert (not (not (= symbol_288 (_ bv5 32)))))
(assert (not (not (= symbol_286 (_ bv5 32)))))
(assert (not (not (= symbol_283 (_ bv5 32)))))
(assert (not (not (= symbol_281 (_ bv5 32)))))
(assert (not (not (= symbol_279 (_ bv5 32)))))
(assert (not (not (= symbol_277 (_ bv5 32)))))
(assert (not (not (= symbol_276 (_ bv5 32)))))
(assert (not (not (= symbol_274 (_ bv5 32)))))
(assert (not (not (= symbol_272 (_ bv5 32)))))
(assert (not (not (= symbol_269 (_ bv5 32)))))
(assert (not (not (= symbol_267 (_ bv5 32)))))
(assert (not (not (= symbol_265 (_ bv5 32)))))
(assert (not (not (= symbol_263 (_ bv5 32)))))
(assert (not (not (= symbol_260 (_ bv5 32)))))
(assert (not (not (= symbol_258 (_ bv5 32)))))
(assert (not (not (= symbol_256 (_ bv5 32)))))
(assert (not (not (= symbol_254 (_ bv5 32)))))
(assert (not (not (= symbol_251 (_ bv5 32)))))
(assert (not (not (= symbol_250 (_ bv5 32)))))
(assert (not (not (= symbol_247 (_ bv5 32)))))
(assert (not (not (= symbol_245 (_ bv5 32)))))
(assert (not (not (= symbol_243 (_ bv5 32)))))
(assert (not (not (= symbol_240 (_ bv5 32)))))
(assert (not (not (= symbol_238 (_ bv5 32)))))
(assert (not (not (= symbol_235 (_ bv5 32)))))
(assert (not (not (= symbol_233 (_ bv5 32)))))
(assert (not (not (= symbol_231 (_ bv5 32)))))
(assert (not (not (= symbol_229 (_ bv5 32)))))
(assert (not (not (= symbol_227 (_ bv5 32)))))
(assert (not (not (= symbol_225 (_ bv5 32)))))
(assert (not (not (= symbol_223 (_ bv5 32)))))
(assert (not (not (= symbol_220 (_ bv5 32)))))
(assert (not (not (= symbol_218 (_ bv5 32)))))
(assert (not (not (= symbol_216 (_ bv5 32)))))
(assert (not (not (= symbol_214 (_ bv5 32)))))
(assert (not (not (= symbol_212 (_ bv5 32)))))
(assert (not (not (= symbol_210 (_ bv5 32)))))
(assert (not (not (= symbol_208 (_ bv5 32)))))
(assert (not (not (= symbol_206 (_ bv5 32)))))
(assert (not (not (= symbol_204 (_ bv5 32)))))
(assert (not (not (= symbol_202 (_ bv5 32)))))
(assert (not (not (= symbol_200 (_ bv5 32)))))
(assert (not (not (= symbol_198 (_ bv5 32)))))
(assert (not (not (= symbol_196 (_ bv5 32)))))
(assert (not (not (= symbol_194 (_ bv5 32)))))
(assert (not (not (= symbol_191 (_ bv5 32)))))
(assert (not (not (= symbol_189 (_ bv5 32)))))
(assert (not (not (= symbol_187 (_ bv5 32)))))
(assert (not (not (= symbol_185 (_ bv5 32)))))
(assert (not (not (= symbol_183 (_ bv5 32)))))
(assert (not (not (= symbol_181 (_ bv5 32)))))
(assert (not (not (= symbol_179 (_ bv5 32)))))
(assert (not (not (= symbol_177 (_ bv5 32)))))
(assert (not (not (= symbol_175 (_ bv5 32)))))
(assert (not (not (= symbol_173 (_ bv5 32)))))
(assert (not (not (= symbol_170 (_ bv5 32)))))
(assert (not (not (= symbol_168 (_ bv5 32)))))
(assert (not (not (= symbol_166 (_ bv5 32)))))
(assert (not (not (= symbol_164 (_ bv5 32)))))
(assert (not (not (= symbol_161 (_ bv5 32)))))
(assert (not (not (= symbol_159 (_ bv5 32)))))
(assert (not (not (= symbol_157 (_ bv5 32)))))
(assert (not (not (= symbol_154 (_ bv5 32)))))
(assert (not (not (= symbol_152 (_ bv5 32)))))
(assert (not (not (= symbol_150 (_ bv5 32)))))
(assert (not (not (= symbol_148 (_ bv5 32)))))
(assert (not (not (= symbol_145 (_ bv5 32)))))
(assert (not (not (= symbol_144 (_ bv5 32)))))
(assert (not (not (= symbol_142 (_ bv5 32)))))
(assert (not (not (= symbol_140 (_ bv5 32)))))
(assert (not (not (= symbol_138 (_ bv5 32)))))
(assert (not (not (= symbol_135 (_ bv5 32)))))
(assert (not (not (= symbol_133 (_ bv5 32)))))
(assert (not (not (= symbol_130 (_ bv5 32)))))
(assert (not (not (= symbol_128 (_ bv5 32)))))
(assert (not (not (= symbol_126 (_ bv5 32)))))
(assert (not (not (= symbol_123 (_ bv5 32)))))
(assert (not (not (= symbol_121 (_ bv5 32)))))
(assert (not (not (= symbol_119 (_ bv5 32)))))
(assert (not (not (= symbol_117 (_ bv5 32)))))
(assert (not (not (= symbol_115 (_ bv5 32)))))
(assert (not (not (= symbol_112 (_ bv5 32)))))
(assert (not (not (= symbol_110 (_ bv5 32)))))
(assert (not (not (= symbol_108 (_ bv5 32)))))
(assert (not (not (= symbol_106 (_ bv5 32)))))
(assert (not (not (= symbol_103 (_ bv5 32)))))
(assert (not (not (= symbol_101 (_ bv5 32)))))
(assert (not (not (= symbol_99 (_ bv5 32)))))
(assert (not (not (= symbol_97 (_ bv5 32)))))
(assert (not (not (= symbol_94 (_ bv5 32)))))
(assert (not (not (= symbol_92 (_ bv5 32)))))
(assert (not (not (= symbol_90 (_ bv5 32)))))
(assert (not (not (= symbol_88 (_ bv5 32)))))
(assert (not (not (= symbol_86 (_ bv5 32)))))
(assert (not (not (= symbol_84 (_ bv5 32)))))
(assert (not (not (= symbol_81 (_ bv5 32)))))
(assert (not (not (= symbol_79 (_ bv5 32)))))
(assert (not (not (= symbol_77 (_ bv5 32)))))
(assert (not (not (= symbol_75 (_ bv5 32)))))
(assert (not (not (= symbol_73 (_ bv5 32)))))
(assert (not (not (= symbol_71 (_ bv5 32)))))
(assert (not (not (= symbol_69 (_ bv5 32)))))
(assert (not (not (= symbol_66 (_ bv5 32)))))
(assert (not (not (= symbol_64 (_ bv5 32)))))
(assert (not (not (= symbol_62 (_ bv5 32)))))
(assert (not (not (= symbol_60 (_ bv5 32)))))
(assert (not (not (= symbol_58 (_ bv5 32)))))
(assert (not (not (= symbol_56 (_ bv5 32)))))
(assert (not (not (= symbol_53 (_ bv5 32)))))
(assert (not (not (= symbol_50 (_ bv5 32)))))
(assert (not (not (= symbol_48 (_ bv5 32)))))
(assert (not (not (= symbol_46 (_ bv5 32)))))
(assert (not (not (= symbol_44 (_ bv5 32)))))
(assert (not (not (= symbol_42 (_ bv5 32)))))
(assert (not (not (= symbol_40 (_ bv5 32)))))
(assert (not (not (= symbol_38 (_ bv5 32)))))
(assert (not (not (= symbol_35 (_ bv5 32)))))
(assert (not (not (= symbol_33 (_ bv5 32)))))
(assert (not (not (= symbol_31 (_ bv5 32)))))
(assert (not (not (= symbol_29 (_ bv5 32)))))
(assert (not (not (= symbol_27 (_ bv5 32)))))
(assert (not (not (= symbol_25 (_ bv5 32)))))
(assert (not (not (= symbol_23 (_ bv5 32)))))
(assert (not (not (= symbol_21 (_ bv5 32)))))
(assert (not (not (= symbol_18 (_ bv5 32)))))
(assert (not (not (= symbol_15 (_ bv5 32)))))
(assert (not (not (= symbol_13 (_ bv5 32)))))
(assert (not (not (= symbol_11 (_ bv5 32)))))
(assert (not (not (= symbol_8 (_ bv5 32)))))
(assert (not (not (= symbol_6 (_ bv5 32)))))
(assert (not (not (= symbol_3 (_ bv5 32)))))
(assert (not (not (= symbol_1 (_ bv5 32)))))
(assert (not (not (= symbol_0 (_ bv5 32)))))
(check-sat)